benchmarks_CP/INST_36x36/55/inst36x36_55_56.dzn
S=6;
start=[|
10,	18,	1,	-1,	28,	-1,	22,	-1,	-1,	-1,	-1,	-1,	7,	-1,	-1,	-1,	23,	4,	8,	13,	-1,	11,	19,	14,	6,	-1,	32,	-1,	-1,	-1,	-1,	-1,	-1,	24,	-1,	27|
-1,	3,	29,	-1,	-1,	4,	-1,	-1,	32,	10,	11,	-1,	-1,	5,	-1,	26,	27,	-1,	-1,	-1,	-1,	23,	-1,	31,	-1,	-1,	-1,	-1,	9,	36,	-1,	-1,	-1,	-1,	6,	-1|
5,	-1,	19,	6,	35,	15,	-1,	21,	-1,	18,	4,	9,	-1,	-1,	-1,	-1,	3,	32,	-1,	22,	17,	-1,	-1,	7,	26,	10,	31,	30,	14,	-1,	13,	25,	11,	-1,	20,	-1|
-1,	2,	-1,	22,	27,	-1,	17,	3,	-1,	-1,	-1,	-1,	29,	-1,	-1,	-1,	9,	35,	15,	-1,	-1,	20,	-1,	-1,	18,	-1,	-1,	4,	19,	11,	36,	28,	-1,	10,	7,	30|
-1,	-1,	8,	7,	-1,	-1,	-1,	-1,	31,	26,	33,	1,	-1,	22,	-1,	-1,	-1,	36,	10,	-1,	32,	4,	18,	-1,	-1,	-1,	27,	-1,	-1,	-1,	16,	-1,	5,	14,	29,	-1|
-1,	-1,	-1,	-1,	9,	-1,	-1,	14,	2,	7,	35,	27,	34,	-1,	18,	31,	15,	24,	-1,	-1,	-1,	5,	25,	-1,	-1,	17,	-1,	-1,	-1,	13,	1,	32,	33,	-1,	3,	-1|
-1,	5,	-1,	25,	-1,	-1,	27,	34,	-1,	-1,	19,	-1,	-1,	-1,	-1,	-1,	-1,	7,	-1,	-1,	12,	28,	-1,	33,	-1,	2,	-1,	17,	8,	-1,	-1,	-1,	-1,	-1,	24,	-1|
-1,	-1,	-1,	-1,	7,	-1,	-1,	-1,	3,	5,	-1,	-1,	-1,	-1,	-1,	-1,	17,	1,	18,	-1,	27,	-1,	15,	-1,	22,	-1,	-1,	-1,	-1,	6,	-1,	12,	-1,	-1,	-1,	-1|
-1,	9,	-1,	-1,	11,	8,	-1,	-1,	35,	29,	22,	10,	21,	6,	2,	23,	19,	28,	31,	20,	7,	16,	-1,	-1,	25,	15,	-1,	3,	-1,	-1,	5,	4,	30,	-1,	36,	-1|
-1,	14,	6,	-1,	30,	-1,	-1,	8,	-1,	25,	-1,	31,	-1,	24,	-1,	20,	-1,	9,	32,	-1,	13,	19,	5,	1,	28,	33,	4,	16,	10,	18,	23,	17,	-1,	34,	-1,	2|
-1,	-1,	10,	19,	-1,	-1,	-1,	-1,	-1,	17,	16,	-1,	25,	-1,	31,	22,	-1,	34,	35,	-1,	9,	-1,	36,	3,	30,	21,	-1,	-1,	-1,	12,	-1,	-1,	-1,	1,	15,	7|
-1,	-1,	36,	-1,	-1,	-1,	11,	-1,	-1,	-1,	20,	28,	14,	-1,	27,	5,	10,	12,	-1,	25,	23,	-1,	-1,	6,	-1,	9,	-1,	24,	-1,	7,	-1,	19,	-1,	-1,	18,	3|
24,	32,	-1,	-1,	23,	-1,	-1,	-1,	17,	-1,	-1,	22,	31,	-1,	-1,	-1,	-1,	3,	29,	15,	14,	30,	-1,	-1,	7,	4,	36,	20,	-1,	-1,	-1,	1,	19,	18,	34,	-1|
-1,	-1,	5,	-1,	8,	-1,	4,	-1,	21,	2,	9,	34,	11,	19,	1,	32,	18,	-1,	12,	-1,	6,	33,	31,	-1,	-1,	-1,	23,	-1,	13,	-1,	24,	20,	26,	-1,	17,	36|
12,	-1,	-1,	-1,	-1,	-1,	31,	26,	30,	-1,	-1,	-1,	17,	23,	10,	29,	-1,	-1,	-1,	36,	-1,	9,	-1,	5,	32,	-1,	15,	-1,	-1,	21,	-1,	-1,	7,	28,	27,	-1|
-1,	-1,	7,	-1,	29,	-1,	23,	27,	-1,	36,	-1,	12,	15,	28,	-1,	4,	16,	30,	25,	17,	2,	-1,	20,	34,	3,	-1,	24,	11,	-1,	8,	-1,	6,	35,	-1,	9,	-1|
16,	-1,	31,	9,	4,	6,	-1,	20,	-1,	11,	-1,	7,	-1,	-1,	24,	36,	21,	-1,	-1,	32,	3,	35,	-1,	19,	27,	30,	-1,	5,	17,	25,	33,	-1,	-1,	29,	23,	13|
-1,	-1,	-1,	-1,	-1,	11,	29,	-1,	-1,	-1,	10,	-1,	-1,	34,	-1,	7,	-1,	14,	26,	27,	4,	18,	13,	23,	-1,	12,	-1,	35,	-1,	9,	-1,	-1,	22,	31,	21,	16|
6,	12,	-1,	-1,	13,	-1,	-1,	2,	-1,	-1,	36,	30,	10,	32,	-1,	-1,	-1,	-1,	7,	5,	25,	14,	35,	15,	-1,	-1,	-1,	-1,	-1,	26,	19,	-1,	28,	11,	8,	34|
15,	-1,	-1,	24,	10,	34,	-1,	-1,	23,	13,	14,	17,	18,	7,	-1,	30,	-1,	-1,	21,	-1,	8,	31,	6,	2,	1,	32,	25,	-1,	-1,	28,	26,	-1,	16,	20,	35,	4|
-1,	17,	21,	4,	1,	25,	-1,	-1,	-1,	-1,	27,	3,	-1,	-1,	23,	15,	28,	19,	-1,	26,	33,	32,	12,	-1,	-1,	-1,	7,	8,	-1,	10,	-1,	30,	14,	-1,	-1,	9|
35,	-1,	22,	-1,	-1,	-1,	-1,	29,	18,	4,	15,	-1,	-1,	2,	-1,	3,	-1,	-1,	23,	-1,	28,	27,	9,	-1,	16,	34,	30,	-1,	36,	20,	21,	-1,	12,	17,	25,	5|
32,	-1,	-1,	-1,	-1,	2,	8,	-1,	-1,	-1,	28,	33,	22,	9,	-1,	-1,	25,	16,	-1,	-1,	18,	29,	-1,	11,	-1,	35,	-1,	13,	12,	-1,	6,	-1,	15,	-1,	-1,	24|
7,	-1,	9,	33,	-1,	26,	-1,	-1,	-1,	35,	25,	11,	-1,	-1,	-1,	24,	34,	-1,	-1,	1,	-1,	3,	30,	4,	-1,	6,	2,	14,	15,	17,	29,	13,	18,	23,	32,	31|
27,	-1,	14,	34,	-1,	-1,	3,	-1,	12,	-1,	30,	-1,	-1,	-1,	32,	16,	31,	-1,	17,	-1,	10,	24,	-1,	13,	36,	26,	-1,	15,	33,	-1,	25,	5,	23,	35,	28,	-1|
28,	25,	-1,	36,	3,	-1,	33,	11,	1,	27,	5,	20,	-1,	26,	-1,	19,	-1,	10,	14,	-1,	29,	-1,	-1,	18,	34,	16,	-1,	-1,	23,	-1,	2,	-1,	-1,	-1,	13,	-1|
8,	10,	17,	32,	-1,	19,	-1,	36,	-1,	-1,	31,	2,	-1,	-1,	3,	12,	-1,	-1,	33,	23,	5,	26,	-1,	22,	-1,	-1,	11,	29,	21,	4,	20,	-1,	6,	7,	30,	1|
22,	11,	-1,	-1,	-1,	9,	35,	17,	15,	8,	-1,	26,	-1,	-1,	-1,	33,	30,	23,	28,	4,	-1,	-1,	-1,	-1,	-1,	25,	-1,	-1,	-1,	24,	-1,	16,	36,	27,	19,	-1|
-1,	33,	4,	5,	16,	12,	-1,	24,	22,	-1,	23,	-1,	36,	15,	17,	-1,	20,	13,	19,	-1,	-1,	25,	-1,	32,	31,	14,	-1,	7,	28,	1,	18,	26,	3,	-1,	-1,	-1|
-1,	-1,	26,	23,	-1,	31,	28,	-1,	13,	16,	32,	-1,	1,	-1,	-1,	-1,	-1,	-1,	9,	6,	30,	-1,	-1,	-1,	-1,	8,	3,	12,	-1,	-1,	14,	34,	-1,	33,	-1,	-1|
14,	-1,	-1,	8,	-1,	16,	-1,	33,	-1,	12,	3,	-1,	32,	13,	29,	34,	-1,	-1,	30,	-1,	15,	17,	-1,	35,	2,	-1,	-1,	-1,	7,	-1,	9,	-1,	24,	-1,	5,	-1|
9,	30,	33,	-1,	12,	7,	32,	19,	-1,	-1,	2,	15,	23,	-1,	22,	-1,	14,	-1,	5,	18,	1,	-1,	-1,	27,	-1,	31,	-1,	34,	-1,	3,	-1,	-1,	8,	-1,	-1,	-1|
-1,	-1,	-1,	-1,	-1,	35,	7,	31,	-1,	9,	-1,	-1,	19,	20,	28,	-1,	-1,	5,	34,	2,	-1,	36,	-1,	25,	-1,	13,	-1,	-1,	-1,	14,	30,	-1,	-1,	22,	-1,	6|
17,	-1,	32,	-1,	-1,	-1,	-1,	35,	-1,	-1,	34,	13,	12,	36,	-1,	18,	-1,	27,	-1,	-1,	11,	7,	23,	29,	-1,	20,	-1,	-1,	30,	-1,	-1,	3,	25,	-1,	10,	15|
-1,	21,	34,	2,	-1,	-1,	24,	-1,	-1,	28,	17,	-1,	30,	3,	-1,	9,	7,	8,	22,	31,	20,	-1,	-1,	-1,	15,	-1,	26,	-1,	-1,	-1,	-1,	29,	4,	-1,	33,	-1|
-1,	-1,	-1,	10,	20,	-1,	-1,	1,	27,	-1,	26,	36,	24,	16,	-1,	-1,	6,	-1,	-1,	-1,	19,	-1,	33,	-1,	17,	28,	12,	-1,	4,	5,	-1,	11,	34,	-1,	-1,	32|];
